50
20147

577 434
393 978
112 965
239 527
242 752
92 312
150 74
427 969
556 508
195 863
12 951
312 200
215 819
839 831
614 19
579 71
206 675
565 635
753 489
853 798
567 16
264 925
461 335
527 850
422 628
413 595
817 560
919 709
712 808
477 750
370 38
398 249
525 652
278 540
92 12
882 996
568 451
41 11
716 435
852 110
325 608
864 931
823 674
944 189
615 327
28 585
762 785
685 590
599 878
748 294
